NAME : kroC100-R-3-1-a.28130.tour
COMMENT : Length = 28130
COMMENT : Found by LKH-3 [Keld Helsgaun] Tue Jul 30 13:14:56 2024
TYPE : TOUR
DIMENSION : 100
TOUR_SECTION
1
53
27
15
79
13
65
60
4
93
12
46
24
32
7
82
78
26
61
37
63
52
11
45
100
74
69
73
59
41
89
30
23
94
95
86
5
43
56
71
39
34
90
25
17
8
22
75
54
6
47
55
42
20
64
67
31
80
77
68
35
2
62
83
98
58
88
28
38
72
50
91
76
70
21
3
14
99
19
92
10
36
57
33
81
97
96
87
84
48
66
44
51
16
9
29
18
49
40
85
-1
EOF
